
Gurobi 9.5.2 (win64) logging started Mon Mar 27 20:26:40 2023

Set parameter LogFile to value "2023-03-27_20hr-25min-09sec/Nodes20_Arcs45_LocNodes15/Formulation-2Instance-2.log"
Set parameter TimeLimit to value 600
Set parameter IntFeasTol to value 1e-09
Set parameter DualReductions to value 0
Set parameter NonConvex to value 2
Gurobi Optimizer version 9.5.2 build v9.5.2rc0 (win64)
Thread count: 4 physical cores, 8 logical processors, using up to 8 threads
Optimize a model with 101 rows, 180 columns and 410 nonzeros
Model fingerprint: 0x2000d813
Model has 65 quadratic objective terms
Model has 65 SOS constraints
Variable types: 165 continuous, 15 integer (15 binary)
Coefficient statistics:
  Matrix range     [2e-03, 2e+02]
  Objective range  [6e-02, 1e+03]
  QObjective range [4e-03, 8e+00]
  Bounds range     [1e+00, 1e+00]
  RHS range        [6e-02, 1e+03]
Presolve time: 0.00s
Presolved: 101 rows, 180 columns, 410 nonzeros
Presolved model has 65 SOS constraint(s)
Presolved model has 65 quadratic objective terms
Variable types: 165 continuous, 15 integer (15 binary)

Root relaxation: objective 4.607334e+05, 233 iterations, 0.00 seconds (0.00 work units)

    Nodes    |    Current Node    |     Objective Bounds      |     Work
 Expl Unexpl |  Obj  Depth IntInf | Incumbent    BestBd   Gap | It/Node Time

     0     0 460733.352    0    5          - 460733.352      -     -    0s
H    0     0                    448960.39029 460733.352  2.62%     -    0s
     0     0 460434.311    0    5 448960.390 460434.311  2.56%     -    0s
H    0     0                    449059.14640 460434.311  2.53%     -    0s
H    0     0                    449096.58436 460434.311  2.52%     -    0s

Cutting planes:
  Flow cover: 1

Explored 1 nodes (236 simplex iterations) in 0.07 seconds (0.02 work units)
Thread count was 8 (of 8 available processors)

Solution count 3: 449097 449059 448960 

Optimal solution found (tolerance 1.00e-04)
Best objective 4.490965843591e+05, best bound 4.490965843591e+05, gap 0.0000%

User-callback calls 177, time in user-callback 0.00 sec
